0
Node Left Objective IInf Best_Integer Best_Bound ItCnt Gap
0+ 0 nan nan 136.4723 0.0000 nan 100.00%
0+ 0 nan nan 99.3310 0.0000 nan 100.00%
0 0 24.4170 14 99.3310 24.4170 133 75.42%
0+ 0 nan nan 91.3252 24.4170 nan 73.26%
0 0 32.0761 15 91.3252 Disjcuts:13 182 64.88%
0+ 0 nan nan 77.3123 32.0761 nan 58.51%
0 0 35.5974 15 77.3123 Disjcuts:7 209 53.96%
0 0 35.6660 15 77.3123 Disjcuts:2 212 53.87%
0 0 35.7832 15 77.3123 Disjcuts:3 220 53.72%
0 0 38.8466 15 77.3123 Disjcuts:13 245 49.75%
0+ 0 nan nan 76.9551 38.8466 nan 49.52%
0 0 38.8855 15 76.9551 Disjcuts:2 248 49.47%
0+ 0 nan nan 69.3512 38.8855 nan 43.93%
0 2 38.8855 15 69.3512 38.9252 248 43.87%
CPXPARAM_MIP_Cuts_Disjunctive 10
1
Node Left Objective IInf Best_Integer Best_Bound ItCnt Gap
0+ 0 nan nan 136.4723 0.0000 nan 100.00%
0+ 0 nan nan 99.3310 0.0000 nan 100.00%
0+ 0 nan nan 92.6197 0.0000 nan 100.00%
0 0 0.6675 26 92.6197 0.6675 123 99.28%
0 0 4.3402 23 92.6197 Disjcuts:20 158 95.31%
0+ 0 nan nan 11.7670 4.3402 nan 63.12%
0 0 5.3438 21 11.7670 Disjcuts:17 190 54.59%
0 0 5.4138 22 11.7670 Disjcuts:1 197 53.99%
0 0 5.4562 21 11.7670 Disjcuts:1 198 53.63%
0 0 5.4613 22 11.7670 Disjcuts:1 204 53.59%
0 2 6.3015 9 11.7670 6.3335 204 46.18%
CPXPARAM_MIP_Cuts_Disjunctive 16
2
Node Left Objective IInf Best_Integer Best_Bound ItCnt Gap
0+ 0 nan nan 136.4723 0.0000 nan 100.00%
0+ 0 nan nan 72.0230 0.0000 nan 100.00%
0 0 22.6334 9 72.0230 22.6334 129 68.57%
0 0 28.6727 10 72.0230 Disjcuts:8 147 60.19%
0+ 0 nan nan 66.7968 28.6727 nan 57.07%
0 0 28.6851 9 66.7968 Disjcuts:2 150 57.06%
0+ 0 nan nan 55.7527 28.6851 nan 48.55%
0+ 0 nan nan 51.0774 28.6851 nan 43.84%
0 2 28.6851 9 51.0774 28.7045 150 43.80%
CPXPARAM_MIP_Cuts_Disjunctive 3
3
Node Left Objective IInf Best_Integer Best_Bound ItCnt Gap
0+ 0 nan nan 136.4723 0.0000 nan 100.00%
0+ 0 nan nan 78.8830 0.0000 nan 100.00%
0 0 0.3026 20 78.8830 0.3026 110 99.62%
0+ 0 nan nan 59.7230 0.3026 nan 99.49%
0 0 2.1640 17 59.7230 Disjcuts:14 136 96.38%
0+ 0 nan nan 23.8183 2.1640 nan 90.91%
0 0 2.7598 15 23.8183 Disjcuts:5 146 88.41%
0 0 2.7784 16 23.8183 Disjcuts:3 153 88.33%
0 0 2.8470 16 23.8183 Disjcuts:5 166 88.05%
0 0 3.5465 15 23.8183 Disjcuts:6 184 85.11%
0+ 0 nan nan 23.5166 3.5465 nan 84.92%
0 2 3.5465 15 23.5166 3.5720 184 84.81%
CPXPARAM_MIP_Cuts_Disjunctive 9
4
Node Left Objective IInf Best_Integer Best_Bound ItCnt Gap
0+ 0 nan nan 115.1924 0.0000 nan 100.00%
0+ 0 nan nan 108.1598 0.0000 nan 100.00%
0+ 0 nan nan 102.3525 0.0000 nan 100.00%
0 0 23.6849 14 102.3525 23.6849 149 76.86%
0+ 0 nan nan 86.4233 23.6849 nan 72.59%
0 0 29.2087 15 86.4233 Disjcuts:14 176 66.20%
0+ 0 nan nan 69.0482 29.2087 nan 57.70%
0 0 29.2087 15 69.0482 Disjcuts:2 178 57.70%
0+ 0 nan nan 56.7192 29.2087 nan 48.50%
0+ 0 nan nan 56.1306 29.2087 nan 47.96%
0 2 29.2087 15 56.1306 29.5297 178 47.39%
CPXPARAM_MIP_Cuts_Disjunctive 7
5
Node Left Objective IInf Best_Integer Best_Bound ItCnt Gap
0+ 0 nan nan 115.1924 0.0000 nan 100.00%
0+ 0 nan nan 108.1598 0.0000 nan 100.00%
0+ 0 nan nan 83.4389 0.0000 nan 100.00%
0 0 0.5012 24 83.4389 0.5012 125 99.40%
0+ 0 nan nan 52.2996 0.5012 nan 99.04%
0 0 5.5978 22 52.2996 Disjcuts:21 158 89.30%
0+ 0 nan nan 16.3715 5.5978 nan 65.81%
0 0 6.1544 21 16.3715 Disjcuts:8 178 62.41%
0 0 6.1749 22 16.3715 Disjcuts:3 188 62.28%
0 0 6.2921 22 16.3715 Disjcuts:3 204 61.57%
0 0 6.3112 22 16.3715 Disjcuts:7 212 61.45%
0 2 6.3112 22 16.3715 6.3393 212 61.28%
CPXPARAM_MIP_Cuts_Disjunctive 13
6
Node Left Objective IInf Best_Integer Best_Bound ItCnt Gap
0+ 0 nan nan 115.1924 0.0000 nan 100.00%
0+ 0 nan nan 82.6615 0.0000 nan 100.00%
0 0 24.8139 9 82.6615 24.8139 129 69.98%
0+ 0 nan nan 71.8353 24.8139 nan 65.46%
0 0 27.8168 9 71.8353 Disjcuts:3 138 61.28%
0+ 0 nan nan 54.6460 27.8168 nan 49.10%
0 0 31.7280 8 54.6460 Disjcuts:7 162 41.94%
0 0 32.6952 9 54.6460 Disjcuts:4 180 40.17%
0 0 32.8828 9 54.6460 Disjcuts:1 187 39.83%
0+ 0 nan nan 53.4415 32.8828 nan 38.47%
0 0 32.9418 10 53.4415 Disjcuts:2 195 38.36%
0+ 0 nan nan 52.3065 32.9418 nan 37.02%
0 2 32.9418 10 52.3065 32.9600 195 36.99%
CPXPARAM_MIP_Cuts_Disjunctive 6
7
Node Left Objective IInf Best_Integer Best_Bound ItCnt Gap
0+ 0 nan nan 115.1924 0.0000 nan 100.00%
0+ 0 nan nan 86.0575 0.0000 nan 100.00%
0 0 0.0036 22 86.0575 0.0036 119 100.00%
0+ 0 nan nan 43.5961 0.0036 nan 99.99%
0 0 3.4184 18 43.5961 Disjcuts:20 173 92.16%
0+ 0 nan nan 20.7737 3.4184 nan 83.54%
0+ 0 nan nan 19.8546 3.4184 nan 82.78%
0 2 3.4184 18 19.8546 3.9206 173 80.25%
CPXPARAM_MIP_Cuts_Disjunctive 10
8
Node Left Objective IInf Best_Integer Best_Bound ItCnt Gap
0+ 0 nan nan 131.6037 0.0000 nan 100.00%
0+ 0 nan nan 112.2485 0.0000 nan 100.00%
0 0 45.7863 15 112.2485 45.7863 126 59.21%
0+ 0 nan nan 98.1321 45.7863 nan 53.34%
0 0 53.9738 17 98.1321 Disjcuts:13 147 45.00%
0+ 0 nan nan 97.5804 53.9738 nan 44.69%
0 0 55.7489 13 97.5804 Disjcuts:4 161 42.87%
0 0 56.2763 18 97.5804 Disjcuts:9 194 42.33%
0 0 56.5494 17 97.5804 Disjcuts:9 221 42.05%
0+ 0 nan nan 94.7239 56.5494 nan 40.30%
0 0 56.5856 17 94.7239 Disjcuts:2 228 40.26%
0 0 56.6082 16 94.7239 Disjcuts:2 234 40.24%
0+ 0 nan nan 73.7577 56.6082 nan 23.25%
0+ 0 nan nan 72.2665 56.6082 nan 21.67%
0 2 56.6082 16 72.2665 56.6261 234 21.64%
CPXPARAM_MIP_Cuts_Disjunctive 13
9
Node Left Objective IInf Best_Integer Best_Bound ItCnt Gap
0+ 0 nan nan 131.6037 0.0000 nan 100.00%
0+ 0 nan nan 111.7972 0.0000 nan 100.00%
0+ 0 nan nan 83.4511 0.0000 nan 100.00%
0 0 0.5228 27 83.4511 0.5228 117 99.37%
0+ 0 nan nan 66.1456 0.5228 nan 99.21%
0 0 4.7622 23 66.1456 Disjcuts:21 164 92.80%
0+ 0 nan nan 41.5206 4.7622 nan 88.53%
0 0 5.3875 23 41.5206 Disjcuts:6 178 87.02%
0+ 0 nan nan 38.2314 5.3875 nan 85.91%
0 0 5.4290 23 38.2314 Disjcuts:4 185 85.80%
0+ 0 nan nan 37.9104 5.4290 nan 85.68%
0+ 0 nan nan 34.1934 5.4290 nan 84.12%
0 2 5.4290 23 34.1934 5.4314 185 84.12%
CPXPARAM_MIP_Cuts_Disjunctive 12
10
Node Left Objective IInf Best_Integer Best_Bound ItCnt Gap
0+ 0 nan nan 131.6037 0.0000 nan 100.00%
0+ 0 nan nan 103.2308 0.0000 nan 100.00%
0 0 38.3907 9 103.2308 38.3907 132 62.81%
0+ 0 nan nan 95.7077 38.3907 nan 59.89%
0 0 47.2806 7 95.7077 Disjcuts:5 151 50.60%
0+ 0 nan nan 73.4270 47.2806 nan 35.61%
0 0 47.7497 7 73.4270 Disjcuts:4 159 34.97%
0 0 48.2524 10 73.4270 Disjcuts:2 174 34.29%
0 0 49.6074 6 73.4270 Disjcuts:4 185 32.44%
0+ 0 nan nan 72.9262 49.6074 nan 31.98%
0 0 49.6086 7 72.9262 Disjcuts:1 186 31.97%
0+ 0 nan nan 64.1513 49.6086 nan 22.67%
0 2 49.6086 7 64.1513 50.8015 186 20.81%
CPXPARAM_MIP_Cuts_Disjunctive 7
11
Node Left Objective IInf Best_Integer Best_Bound ItCnt Gap
0+ 0 nan nan 131.6037 0.0000 nan 100.00%
0+ 0 nan nan 119.4045 0.0000 nan 100.00%
0 0 0.0384 21 119.4045 0.0384 109 99.97%
0+ 0 nan nan 53.3751 0.0384 nan 99.93%
0 0 4.3450 15 53.3751 Disjcuts:20 158 91.86%
0+ 0 nan nan 39.8657 4.3450 nan 89.10%
0 0 4.6594 16 39.8657 Disjcuts:4 184 88.31%
0+ 0 nan nan 34.9679 4.6594 nan 86.68%
0 0 4.6885 17 34.9679 Disjcuts:1 196 86.59%
0 0 4.9314 15 34.9679 Disjcuts:5 225 85.90%
0 0 5.6101 16 34.9679 Disjcuts:7 265 83.96%
0+ 0 nan nan 33.4414 5.6101 nan 83.22%
0 2 5.6101 16 33.4414 5.6747 265 83.03%
CPXPARAM_MIP_Cuts_Disjunctive 12
12
Node Left Objective IInf Best_Integer Best_Bound ItCnt Gap
0+ 0 nan nan 110.3567 0.0000 nan 100.00%
0+ 0 nan nan 96.8755 0.0000 nan 100.00%
0 0 29.3411 15 96.8755 29.3411 140 69.71%
0+ 0 nan nan 82.7988 29.3411 nan 64.56%
0 0 38.3192 15 82.7988 Disjcuts:15 179 53.72%
0+ 0 nan nan 81.6611 38.3192 nan 53.08%
0 0 38.7793 15 81.6611 Disjcuts:3 183 52.51%
0+ 0 nan nan 78.7782 38.7793 nan 50.77%
0 0 38.9287 14 78.7782 Disjcuts:3 195 50.58%
0 0 39.4747 14 78.7782 Disjcuts:6 211 49.89%
0+ 0 nan nan 70.3773 39.4747 nan 43.91%
0 0 41.0503 14 70.3773 Disjcuts:8 253 41.67%
0+ 0 nan nan 60.8964 41.0503 nan 32.59%
0 0 41.3209 14 60.8964 Disjcuts:2 256 32.15%
0+ 0 nan nan 57.9047 41.3209 nan 28.64%
0 2 41.3209 14 57.9047 41.4077 256 28.49%
CPXPARAM_MIP_Cuts_Disjunctive 7
13
Node Left Objective IInf Best_Integer Best_Bound ItCnt Gap
0+ 0 nan nan 110.3567 0.0000 nan 100.00%
0+ 0 nan nan 96.8755 0.0000 nan 100.00%
0+ 0 nan nan 82.0823 0.0000 nan 100.00%
0 0 0.5309 26 82.0823 0.5309 120 99.35%
0+ 0 nan nan 75.6071 0.5309 nan 99.30%
0 0 4.3163 25 75.6071 Disjcuts:18 158 94.29%
0+ 0 nan nan 48.4510 4.3163 nan 91.09%
0 0 4.7411 26 48.4510 Disjcuts:5 176 90.21%
0+ 0 nan nan 34.5563 4.7411 nan 86.28%
0 0 5.9885 21 34.5563 Disjcuts:9 194 82.67%
0+ 0 nan nan 23.5491 5.9885 nan 74.57%
0 0 6.2786 22 23.5491 Disjcuts:4 206 73.34%
0+ 0 nan nan 23.1447 6.2786 nan 72.87%
0 0 6.8439 22 23.1447 Disjcuts:9 236 70.43%
0+ 0 nan nan 19.7749 6.8439 nan 65.39%
0 0 6.8708 23 19.7749 Disjcuts:1 242 65.25%
0 0 6.9064 22 19.7749 Disjcuts:2 246 65.08%
0 0 6.9227 22 19.7749 Disjcuts:1 247 64.99%
0+ 0 nan nan 19.6266 6.9227 nan 64.73%
0 2 6.9227 22 19.6266 7.0416 247 64.12%
CPXPARAM_MIP_Cuts_Disjunctive 17
14
Node Left Objective IInf Best_Integer Best_Bound ItCnt Gap
0+ 0 nan nan 110.3567 0.0000 nan 100.00%
0+ 0 nan nan 82.1268 0.0000 nan 100.00%
0 0 26.8968 8 82.1268 26.8968 122 67.25%
0+ 0 nan nan 70.4047 26.8968 nan 61.80%
0 0 29.9550 9 70.4047 Disjcuts:6 150 57.45%
0+ 0 nan nan 60.9769 29.9550 nan 50.87%
0 0 32.4503 9 60.9769 Disjcuts:4 174 46.78%
0+ 0 nan nan 52.3114 32.4503 nan 37.97%
0 0 32.8871 9 52.3114 Disjcuts:2 186 37.13%
0+ 0 nan nan 51.9709 32.8871 nan 36.72%
0 0 32.8997 9 51.9709 Disjcuts:1 189 36.70%
0 0 32.9304 10 51.9709 Disjcuts:1 192 36.64%
0+ 0 nan nan 49.4592 32.9304 nan 33.42%
0 2 32.9304 10 49.4592 33.1315 192 33.01%
CPXPARAM_MIP_Cuts_Disjunctive 7
15
Node Left Objective IInf Best_Integer Best_Bound ItCnt Gap
0+ 0 nan nan 110.3567 0.0000 nan 100.00%
0+ 0 nan nan 93.2185 0.0000 nan 100.00%
0 0 0.2742 21 93.2185 0.2742 115 99.71%
0+ 0 nan nan 39.7563 0.2742 nan 99.31%
0 0 4.6830 16 39.7563 Disjcuts:20 163 88.22%
0+ 0 nan nan 19.2015 4.6830 nan 75.61%
0 0 4.6830 16 19.2015 Disjcuts:1 165 75.61%
0 0 4.6830 16 19.2015 Disjcuts:1 166 75.61%
0+ 0 nan nan 18.9734 4.6830 nan 75.32%
0+ 0 nan nan 12.5602 4.6830 nan 62.72%
0 2 5.6040 13 12.5602 5.6042 166 55.38%
CPXPARAM_MIP_Cuts_Disjunctive 11
16
Node Left Objective IInf Best_Integer Best_Bound ItCnt Gap
0+ 0 nan nan 109.2984 0.0000 nan 100.00%
0+ 0 nan nan 99.1849 0.0000 nan 100.00%
0 0 39.0015 15 99.1849 39.0015 136 60.68%
0+ 0 nan nan 96.2736 39.0015 nan 59.49%
0 0 47.5834 15 96.2736 Disjcuts:13 162 50.57%
0+ 0 nan nan 68.6047 47.5834 nan 30.64%
0 0 47.9617 14 68.6047 Disjcuts:3 170 30.09%
0 0 49.3598 15 68.6047 Disjcuts:12 202 28.05%
0+ 0 nan nan 63.0801 49.3598 nan 21.75%
0 0 49.6071 16 63.0801 Disjcuts:9 216 21.36%
0 0 51.9628 16 63.0801 Disjcuts:13 256 17.62%
0 2 51.9628 16 63.0801 51.9726 256 17.61%
CPXPARAM_MIP_Cuts_Disjunctive 11
17
Node Left Objective IInf Best_Integer Best_Bound ItCnt Gap
0+ 0 nan nan 109.2984 0.0000 nan 100.00%
0+ 0 nan nan 97.6971 0.0000 nan 100.00%
0+ 0 nan nan 85.4994 0.0000 nan 100.00%
0 0 0.4869 27 85.4994 0.4869 123 99.43%
0+ 0 nan nan 71.6706 0.4869 nan 99.32%
0 0 4.5638 22 71.6706 Disjcuts:24 161 93.63%
0+ 0 nan nan 32.8576 4.5638 nan 86.11%
0 0 4.7985 24 32.8576 Disjcuts:6 179 85.40%
0+ 0 nan nan 30.9954 4.7985 nan 84.52%
0 0 4.8502 25 30.9954 Disjcuts:3 184 84.35%
0 0 4.9224 24 30.9954 Disjcuts:3 191 84.12%
0 2 4.9224 24 30.9954 4.9380 191 84.07%
CPXPARAM_MIP_Cuts_Disjunctive 14
18
Node Left Objective IInf Best_Integer Best_Bound ItCnt Gap
0+ 0 nan nan 109.2984 0.0000 nan 100.00%
0+ 0 nan nan 89.3009 0.0000 nan 100.00%
0 0 37.6534 9 89.3009 37.6534 120 57.84%
0+ 0 nan nan 78.0911 37.6534 nan 51.78%
0 0 42.6848 10 78.0911 Disjcuts:8 138 45.34%
0+ 0 nan nan 62.5895 42.6848 nan 31.80%
0 0 45.8476 11 62.5895 Disjcuts:4 151 26.75%
0 0 45.8637 12 62.5895 Disjcuts:2 155 26.72%
0 0 46.2020 11 62.5895 Disjcuts:4 170 26.18%
0+ 0 nan nan 60.6504 46.2020 nan 23.82%
0 0 46.6615 10 60.6504 Disjcuts:8 189 23.06%
0 0 46.6624 10 60.6504 Disjcuts:1 190 23.06%
0+ 0 nan nan 57.8980 46.6624 nan 19.41%
0 2 46.6624 10 57.8980 46.6764 190 19.38%
CPXPARAM_MIP_Cuts_Disjunctive 8
19
Node Left Objective IInf Best_Integer Best_Bound ItCnt Gap
0+ 0 nan nan 109.2984 0.0000 nan 100.00%
0+ 0 nan nan 92.9814 0.0000 nan 100.00%
0 0 0.4309 20 92.9814 0.4309 108 99.54%
0+ 0 nan nan 60.8556 0.4309 nan 99.29%
0 0 3.8366 16 60.8556 Disjcuts:19 139 93.70%
0+ 0 nan nan 28.0187 3.8366 nan 86.31%
0 0 4.2588 16 28.0187 Disjcuts:5 161 84.80%
0+ 0 nan nan 26.9101 4.2588 nan 84.17%
0 2 4.2588 16 26.9101 4.7420 161 82.38%
CPXPARAM_MIP_Cuts_Disjunctive 12
20
Node Left Objective IInf Best_Integer Best_Bound ItCnt Gap
0+ 0 nan nan 93.3792 0.0000 nan 100.00%
0+ 0 nan nan 84.6822 0.0000 nan 100.00%
0 0 9.0972 13 84.6822 9.0972 140 89.26%
0+ 0 nan nan 42.0305 9.0972 nan 78.36%
0 0 15.5852 11 42.0305 Disjcuts:12 170 62.92%
0+ 0 nan nan 41.6216 15.5852 nan 62.55%
0 0 16.5966 14 41.6216 Disjcuts:7 189 60.13%
0+ 0 nan nan 40.2097 16.5966 nan 58.72%
0 0 17.4850 14 40.2097 Disjcuts:5 202 56.52%
0+ 0 nan nan 37.8233 17.4850 nan 53.77%
0 0 18.1697 14 37.8233 Disjcuts:2 214 51.96%
0 0 18.2163 14 37.8233 Disjcuts:3 225 51.84%
0 2 18.2163 14 37.8233 18.2651 225 51.71%
CPXPARAM_MIP_Cuts_Disjunctive 11
21
Node Left Objective IInf Best_Integer Best_Bound ItCnt Gap
0+ 0 nan nan 93.3792 0.0000 nan 100.00%
0+ 0 nan nan 84.6822 0.0000 nan 100.00%
0+ 0 nan nan 73.2863 0.0000 nan 100.00%
0 0 0.3515 25 73.2863 0.3515 121 99.52%
0+ 0 nan nan 24.0307 0.3515 nan 98.54%
0 0 1.9393 24 24.0307 Disjcuts:21 161 91.93%
0 0 2.4143 24 24.0307 Disjcuts:11 185 89.95%
0+ 0 nan nan 16.4288 2.4143 nan 85.30%
0 0 2.6624 25 16.4288 Disjcuts:6 199 83.79%
0 0 2.6880 26 16.4288 Disjcuts:6 211 83.64%
0+ 0 nan nan 10.8872 2.6880 nan 75.31%
0 0 2.7160 26 10.8872 Disjcuts:4 227 75.05%
0 2 3.0185 20 10.8872 3.0274 227 72.19%
CPXPARAM_MIP_Cuts_Disjunctive 18
22
Node Left Objective IInf Best_Integer Best_Bound ItCnt Gap
0+ 0 nan nan 93.3792 0.0000 nan 100.00%
0+ 0 nan nan 79.5308 0.0000 nan 100.00%
0 0 9.0491 6 79.5308 9.0491 129 88.62%
0+ 0 nan nan 30.9085 9.0491 nan 70.72%
0 0 15.4687 8 30.9085 Disjcuts:4 155 49.95%
0 0 17.6527 5 30.9085 Disjcuts:4 172 42.89%
0+ 0 nan nan 29.0768 17.6527 nan 39.29%
0 0 18.7702 5 29.0768 Disjcuts:3 191 35.45%
0 0 19.2243 7 29.0768 Disjcuts:1 202 33.88%
0 2 19.2243 7 29.0768 19.4481 202 33.11%
CPXPARAM_MIP_Cuts_Disjunctive 7
23
Node Left Objective IInf Best_Integer Best_Bound ItCnt Gap
0+ 0 nan nan 93.3792 0.0000 nan 100.00%
0+ 0 nan nan 78.2544 0.0000 nan 100.00%
0 0 0.1756 21 78.2544 0.1756 110 99.78%
0+ 0 nan nan 32.8177 0.1756 nan 99.46%
0 0 2.6695 14 32.8177 Disjcuts:20 146 91.87%
0+ 0 nan nan 4.7890 2.6695 nan 44.26%
0 0 2.7267 13 4.7890 Disjcuts:1 149 43.06%
0 2 2.9624 9 4.7890 2.9624 152 38.14%
CPXPARAM_MIP_Cuts_Disjunctive 9
24
Node Left Objective IInf Best_Integer Best_Bound ItCnt Gap
0+ 0 nan nan 94.5045 0.0000 nan 100.00%
0+ 0 nan nan 83.7373 0.0000 nan 100.00%
0 0 13.3998 12 83.7373 13.3998 136 84.00%
0+ 0 nan nan 63.4898 13.3998 nan 78.89%
0 0 22.2499 12 63.4898 Disjcuts:10 163 64.96%
0 0 25.5789 13 63.4898 Disjcuts:8 207 59.71%
0+ 0 nan nan 55.4673 25.5789 nan 53.88%
0 0 25.5789 13 55.4673 Disjcuts:1 209 53.88%
0 0 25.5799 15 55.4673 Disjcuts:2 213 53.88%
0+ 0 nan nan 55.2534 25.5799 nan 53.70%
0+ 0 nan nan 53.1400 25.5799 nan 51.86%
0 2 25.5799 15 53.1400 25.8686 213 51.32%
CPXPARAM_MIP_Cuts_Disjunctive 8
25
Node Left Objective IInf Best_Integer Best_Bound ItCnt Gap
0+ 0 nan nan 94.5045 0.0000 nan 100.00%
0+ 0 nan nan 83.9802 0.0000 nan 100.00%
0 0 0.3418 26 83.9802 0.3418 117 99.59%
0+ 0 nan nan 41.4760 0.3418 nan 99.18%
0 0 2.2772 21 41.4760 Disjcuts:23 168 94.51%
0+ 0 nan nan 8.6930 2.2772 nan 73.80%
0 0 2.6051 21 8.6930 Disjcuts:5 190 70.03%
0 0 2.7767 23 8.6930 Disjcuts:10 211 68.06%
0 0 2.7767 22 8.6930 Disjcuts:2 213 68.06%
0+ 0 nan nan 7.5597 2.7767 nan 63.27%
0 2 3.2790 15 7.5597 3.3035 213 56.30%
CPXPARAM_MIP_Cuts_Disjunctive 16
26
Node Left Objective IInf Best_Integer Best_Bound ItCnt Gap
0+ 0 nan nan 94.5045 0.0000 nan 100.00%
0+ 0 nan nan 80.2086 0.0000 nan 100.00%
0 0 12.4465 6 80.2086 12.4465 132 84.48%
0+ 0 nan nan 40.0498 12.4465 nan 68.92%
0 0 21.5676 7 40.0498 Disjcuts:5 165 46.15%
0 0 24.8441 7 40.0498 Disjcuts:4 210 37.97%
0 0 24.8643 7 40.0498 Disjcuts:1 217 37.92%
0 0 26.2854 7 40.0498 Disjcuts:2 237 34.37%
0+ 0 nan nan 38.3421 26.2854 nan 31.44%
0 0 30.2855 6 38.3421 Disjcuts:5 278 21.01%
0 2 30.2855 6 38.3421 30.3134 278 20.94%
CPXPARAM_MIP_Cuts_Disjunctive 8
27
Node Left Objective IInf Best_Integer Best_Bound ItCnt Gap
0+ 0 nan nan 94.5045 0.0000 nan 100.00%
0+ 0 nan nan 84.6207 0.0000 nan 100.00%
0 0 0.1609 19 84.6207 0.1609 117 99.81%
0+ 0 nan nan 40.7896 0.1609 nan 99.61%
0 0 1.9665 16 40.7896 Disjcuts:15 160 95.18%
0+ 0 nan nan 14.5697 1.9665 nan 86.50%
0+ 0 nan nan 5.9700 1.9665 nan 67.06%
0 2 2.6784 8 5.9700 2.7782 160 53.46%
CPXPARAM_MIP_Cuts_Disjunctive 8
28
Node Left Objective IInf Best_Integer Best_Bound ItCnt Gap
0+ 0 nan nan 133.7092 0.0000 nan 100.00%
0+ 0 nan nan 130.8863 0.0000 nan 100.00%
0+ 0 nan nan 108.6480 0.0000 nan 100.00%
0 0 32.9611 14 108.6480 32.9611 141 69.66%
0 0 46.3660 15 108.6480 Disjcuts:13 180 57.32%
0 0 47.8846 15 108.6480 Disjcuts:4 200 55.93%
0+ 0 nan nan 104.9029 47.8846 nan 54.35%
0 0 52.4791 15 104.9029 Disjcuts:6 228 49.97%
0+ 0 nan nan 95.8708 52.4791 nan 45.26%
0 0 52.4987 16 95.8708 Disjcuts:1 232 45.24%
0 0 53.5809 14 95.8708 Disjcuts:5 255 44.11%
0+ 0 nan nan 79.3736 53.5809 nan 32.50%
0+ 0 nan nan 79.1252 53.5809 nan 32.28%
0 2 53.5809 14 79.1252 53.8357 255 31.96%
CPXPARAM_MIP_Cuts_Disjunctive 9
29
Node Left Objective IInf Best_Integer Best_Bound ItCnt Gap
0+ 0 nan nan 133.7092 0.0000 nan 100.00%
0+ 0 nan nan 129.6212 0.0000 nan 100.00%
0 0 0.0000 27 129.6212 0.0000 100 100.00%
0+ 0 nan nan 76.0776 0.0000 nan 100.00%
0 0 4.2437 21 76.0776 Disjcuts:25 167 94.42%
0+ 0 nan nan 25.8641 4.2437 nan 83.59%
0 0 5.4569 22 25.8641 Disjcuts:7 180 78.90%
0+ 0 nan nan 16.8129 5.4569 nan 67.54%
0 0 6.2915 22 16.8129 Disjcuts:6 193 62.58%
0+ 0 nan nan 16.1240 6.2915 nan 60.98%
0 2 6.2915 22 16.1240 6.4017 193 60.30%
CPXPARAM_MIP_Cuts_Disjunctive 14
30
Node Left Objective IInf Best_Integer Best_Bound ItCnt Gap
0+ 0 nan nan 133.7092 0.0000 nan 100.00%
0+ 0 nan nan 115.4430 0.0000 nan 100.00%
0 0 35.6764 9 115.4430 35.6764 127 69.10%
0+ 0 nan nan 93.6289 35.6764 nan 61.90%
0 0 44.0304 10 93.6289 Disjcuts:7 163 52.97%
0 0 46.6530 8 93.6289 Disjcuts:6 193 50.17%
0 0 48.6940 12 93.6289 Disjcuts:3 214 47.99%
0+ 0 nan nan 90.2642 48.6940 nan 46.05%
0 0 50.1007 11 90.2642 Disjcuts:1 241 44.50%
0+ 0 nan nan 89.6372 50.1007 nan 44.11%
0 0 52.3064 9 89.6372 Disjcuts:3 266 41.65%
0+ 0 nan nan 84.9957 52.3064 nan 38.46%
0+ 0 nan nan 73.8964 52.3064 nan 29.22%
0 2 52.3064 9 73.8964 52.4075 266 29.08%
CPXPARAM_MIP_Cuts_Disjunctive 8
31
Node Left Objective IInf Best_Integer Best_Bound ItCnt Gap
0+ 0 nan nan 133.7092 0.0000 nan 100.00%
0+ 0 nan nan 114.7297 0.0000 nan 100.00%
0 0 0.2882 21 114.7297 0.2882 112 99.75%
0+ 0 nan nan 42.2849 0.2882 nan 99.32%
0 0 3.5545 17 42.2849 Disjcuts:17 137 91.59%
0+ 0 nan nan 20.0330 3.5545 nan 82.26%
0 0 4.8251 14 20.0330 Disjcuts:8 151 75.91%
0+ 0 nan nan 16.1689 4.8251 nan 70.16%
0 0 4.9627 15 16.1689 Disjcuts:4 163 69.31%
0+ 0 nan nan 8.0784 4.9627 nan 38.57%
0 0 5.1513 16 8.0784 Disjcuts:5 175 36.23%
0 0 5.2467 17 8.0784 Disjcuts:1 179 35.05%
Node Left Objective IInf Best_Integer Best_Bound ItCnt Gap
0+ 0 nan nan 8.0784 5.2467 nan 35.05%
0 0 8.0158 2 8.0784 8.0158 222 0.77%
0 0 8.0158 3 8.0784 Disjcuts:1 227 0.77%
0 0 8.0158 3 8.0784 Disjcuts:1 232 0.77%
0 0 cutoff 8.0784 8.0158 232 0.77% 0
CPXPARAM_MIP_Cuts_Disjunctive 2
32
Node Left Objective IInf Best_Integer Best_Bound ItCnt Gap
0+ 0 nan nan 110.7059 0.0000 nan 100.00%
0+ 0 nan nan 93.8685 0.0000 nan 100.00%
0+ 0 nan nan 88.1652 0.0000 nan 100.00%
0 0 26.6543 14 88.1652 26.6543 129 69.77%
0+ 0 nan nan 72.9257 26.6543 nan 63.45%
0 0 31.5259 15 72.9257 Disjcuts:13 152 56.77%
0+ 0 nan nan 61.6255 31.5259 nan 48.84%
0 0 33.0446 14 61.6255 Disjcuts:11 182 46.38%
0 0 33.4648 16 61.6255 Disjcuts:1 208 45.70%
0 0 33.6807 16 61.6255 Disjcuts:2 219 45.35%
0 0 34.0898 17 61.6255 Disjcuts:10 247 44.68%
0+ 0 nan nan 49.9118 34.0898 nan 31.70%
0 2 34.0898 17 49.9118 34.1016 247 31.68%
CPXPARAM_MIP_Cuts_Disjunctive 12
33
Node Left Objective IInf Best_Integer Best_Bound ItCnt Gap
0+ 0 nan nan 110.7059 0.0000 nan 100.00%
0+ 0 nan nan 93.8685 0.0000 nan 100.00%
0+ 0 nan nan 66.0679 0.0000 nan 100.00%
0 0 0.7986 24 66.0679 0.7986 121 98.79%
0 0 4.8305 22 66.0679 Disjcuts:22 146 92.69%
0+ 0 nan nan 25.4867 4.8305 nan 81.05%
0 0 5.2494 23 25.4867 Disjcuts:5 154 79.40%
0 0 5.8143 22 25.4867 Disjcuts:13 178 77.19%
0 0 7.0633 21 25.4867 Disjcuts:18 223 72.29%
0+ 0 nan nan 22.6221 7.0633 nan 68.78%
0 0 7.3010 22 22.6221 Disjcuts:11 253 67.73%
0+ 0 nan nan 17.0687 7.3010 nan 57.23%
0+ 0 nan nan 12.6343 7.3010 nan 42.21%
0+ 0 nan nan 11.6909 7.3010 nan 37.55%
0 2 7.8718 15 11.6909 7.9194 253 32.26%
CPXPARAM_MIP_Cuts_Disjunctive 13
34
Node Left Objective IInf Best_Integer Best_Bound ItCnt Gap
0+ 0 nan nan 110.7059 0.0000 nan 100.00%
0+ 0 nan nan 76.3517 0.0000 nan 100.00%
0 0 25.6680 9 76.3517 25.6680 130 66.38%
0+ 0 nan nan 53.1922 25.6680 nan 51.74%
0 0 32.7717 9 53.1922 Disjcuts:8 157 38.39%
0+ 0 nan nan 49.6360 32.7717 nan 33.98%
0+ 0 nan nan 46.7787 32.7717 nan 29.94%
0 2 32.7717 9 46.7787 34.1565 157 26.98%
CPXPARAM_MIP_Cuts_Disjunctive 4
35
Node Left Objective IInf Best_Integer Best_Bound ItCnt Gap
0+ 0 nan nan 110.7059 0.0000 nan 100.00%
0+ 0 nan nan 91.5929 0.0000 nan 100.00%
0 0 0.5699 21 91.5929 0.5699 111 99.38%
0+ 0 nan nan 46.2042 0.5699 nan 98.77%
0 0 5.7155 17 46.2042 Disjcuts:19 145 87.63%
0+ 0 nan nan 21.3441 5.7155 nan 73.22%
0 0 5.9375 17 21.3441 Disjcuts:2 155 72.18%
0+ 0 nan nan 12.0661 5.9375 nan 50.79%
0 2 9.1703 8 12.0661 9.2243 155 23.55%
CPXPARAM_MIP_Cuts_Disjunctive 9
36
Node Left Objective IInf Best_Integer Best_Bound ItCnt Gap
0+ 0 nan nan 123.7135 0.0000 nan 100.00%
0+ 0 nan nan 108.6148 0.0000 nan 100.00%
0+ 0 nan nan 101.4822 0.0000 nan 100.00%
0 0 14.9500 14 101.4822 14.9500 143 85.27%
0+ 0 nan nan 85.1671 14.9500 nan 82.45%
0 0 22.2704 14 85.1671 Disjcuts:11 172 73.85%
0+ 0 nan nan 82.2848 22.2704 nan 72.93%
0 0 25.0844 15 82.2848 Disjcuts:6 206 69.52%
0+ 0 nan nan 67.2356 25.0844 nan 62.69%
0 0 25.4946 14 67.2356 Disjcuts:2 228 62.08%
0 0 25.6585 15 67.2356 Disjcuts:5 237 61.84%
0 0 25.7479 15 67.2356 Disjcuts:4 248 61.70%
0+ 0 nan nan 64.6615 25.7479 nan 60.18%
0 0 25.8902 15 64.6615 Disjcuts:4 265 59.96%
0+ 0 nan nan 64.5929 25.8902 nan 59.92%
0+ 0 nan nan 64.5559 25.8902 nan 59.89%
0+ 0 nan nan 58.5761 25.8902 nan 55.80%
0 2 25.8902 15 58.5761 25.9578 265 55.69%
CPXPARAM_MIP_Cuts_Disjunctive 12
37
Node Left Objective IInf Best_Integer Best_Bound ItCnt Gap
0+ 0 nan nan 123.7135 0.0000 nan 100.00%
0+ 0 nan nan 108.8244 0.0000 nan 100.00%
0+ 0 nan nan 97.8424 0.0000 nan 100.00%
0 0 0.0000 28 97.8424 0.0000 113 100.00%
0+ 0 nan nan 83.8211 0.0000 nan 100.00%
0 0 3.4414 22 83.8211 Disjcuts:26 180 95.89%
0+ 0 nan nan 15.4571 3.4414 nan 77.74%
0 0 3.4933 23 15.4571 Disjcuts:4 191 77.40%
0+ 0 nan nan 14.7888 3.4933 nan 76.38%
0 0 3.5914 22 14.7888 Disjcuts:8 207 75.72%
0+ 0 nan nan 10.8866 3.5914 nan 67.01%
0 0 3.8281 23 10.8866 Disjcuts:5 231 64.84%
0 0 4.0962 23 10.8866 Disjcuts:5 250 62.37%
0 2 4.3569 15 10.8866 4.5206 250 58.48%
CPXPARAM_MIP_Cuts_Disjunctive 17
38
Node Left Objective IInf Best_Integer Best_Bound ItCnt Gap
0+ 0 nan nan 123.7135 0.0000 nan 100.00%
0+ 0 nan nan 93.6483 0.0000 nan 100.00%
0 0 20.1701 7 93.6483 20.1701 129 78.46%
0+ 0 nan nan 48.5233 20.1701 nan 58.43%
0 0 31.8209 7 48.5233 Disjcuts:7 160 34.42%
0 0 34.5818 9 48.5233 Disjcuts:6 193 28.73%
0 0 35.3173 7 48.5233 Disjcuts:4 206 27.22%
0 2 35.3173 7 48.5233 35.7124 206 26.40%
CPXPARAM_MIP_Cuts_Disjunctive 9
39
Node Left Objective IInf Best_Integer Best_Bound ItCnt Gap
0+ 0 nan nan 123.7135 0.0000 nan 100.00%
0+ 0 nan nan 89.8836 0.0000 nan 100.00%
0 0 0.2044 22 89.8836 0.2044 126 99.77%
0+ 0 nan nan 45.3370 0.2044 nan 99.55%
0 0 2.4273 15 45.3370 Disjcuts:19 170 94.65%
0+ 0 nan nan 17.8850 2.4273 nan 86.43%
0 0 2.7979 16 17.8850 Disjcuts:4 190 84.36%
0 0 3.4704 15 17.8850 Disjcuts:3 206 80.60%
0+ 0 nan nan 8.0275 3.4704 nan 56.77%
0 0 3.7275 15 8.0275 Disjcuts:2 224 53.57%
0 2 4.4402 8 8.0275 4.9401 224 38.46%
CPXPARAM_MIP_Cuts_Disjunctive 10
